<number of tasks>
50

<cycle time>
1000

<order strength>
0.195


<task times>
1 313
2 379
3 507
4 567
5 610
6 529
7 477
8 426
9 475
10 661
11 634
12 602
13 445
14 548
15 307
16 534
17 563
18 703
19 247
20 438
21 232
22 395
23 581
24 392
25 534
26 420
27 406
28 665
29 655
30 451
31 416
32 643
33 482
34 424
35 594
36 559
37 529
38 696
39 457
40 549
41 469
42 648
43 448
44 538
45 706
46 528
47 531
48 549
49 406
50 292

<precedence relations>
1,5
1,7
2,6
2,9
4,8
5,10
6,11
7,12
7,16
7,30
8,13
8,14
8,15
8,41
9,14
10,21
11,22
12,17
13,18
14,19
14,24
14,40
15,20
15,38
16,23
17,26
18,30
19,28
20,25
20,31
22,29
23,27
23,31
25,32
26,34
27,35
28,36
29,33
29,37
29,38
29,41
31,39
31,40
32,42
33,43
34,45
35,46
36,45
37,44
38,47
40,47
40,49
42,49
43,50
44,48

<end>
